plate_width = 30;
n_circuits = 28;
n_shapes = 56;
widths = [5, 5, 8, 8, 13, 11, 11, 5, 5, 3, 3, 11, 11, 4, 4, 7, 5, 5, 3, 3, 4, 4, 2, 2, 5, 5, 3, 3];
lengths = [7, 14, 14, 4, 21, 7, 14, 14, 4, 18, 21, 17, 4, 7, 5, 6, 18, 3, 7, 5, 18, 3, 12, 6, 18, 21, 17, 4];
sizes = [| 5, 7 | 7, 5 | 5, 14 | 14, 5 | 8, 14 | 14, 8 | 8, 4 | 4, 8 | 13, 21 | 21, 13 | 11, 7 | 7, 11 | 11, 14 | 14, 11 | 5, 14 | 14, 5 | 5, 4 | 4, 5 | 3, 18 | 18, 3 | 3, 21 | 21, 3 | 11, 17 | 17, 11 | 11, 4 | 4, 11 | 4, 7 | 7, 4 | 4, 5 | 5, 4 | 7, 6 | 6, 7 | 5, 18 | 18, 5 | 5, 3 | 3, 5 | 3, 7 | 7, 3 | 3, 5 | 5, 3 | 4, 18 | 18, 4 | 4, 3 | 3, 4 | 2, 12 | 12, 2 | 2, 6 | 6, 2 | 5, 18 | 18, 5 | 5, 21 | 21, 5 | 3, 17 | 17, 3 | 3, 4 | 4, 3 |];
offsets = [| 0, 0 | 0, 0 | 0, 0 | 0, 0 | 0, 0 | 0, 0 | 0, 0 | 0, 0 | 0, 0 | 0, 0 | 0, 0 | 0, 0 | 0, 0 | 0, 0 | 0, 0 | 0, 0 | 0, 0 | 0, 0 | 0, 0 | 0, 0 | 0, 0 | 0, 0 | 0, 0 | 0, 0 | 0, 0 | 0, 0 | 0, 0 | 0, 0 | 0, 0 | 0, 0 | 0, 0 | 0, 0 | 0, 0 | 0, 0 | 0, 0 | 0, 0 | 0, 0 | 0, 0 | 0, 0 | 0, 0 | 0, 0 | 0, 0 | 0, 0 | 0, 0 | 0, 0 | 0, 0 | 0, 0 | 0, 0 | 0, 0 | 0, 0 | 0, 0 | 0, 0 | 0, 0 | 0, 0 | 0, 0 | 0, 0 |];
shapes = [{1}, {2}, {3}, {4}, {5}, {6}, {7}, {8}, {9}, {10}, {11}, {12}, {13}, {14}, {15}, {16}, {17}, {18}, {19}, {20}, {21}, {22}, {23}, {24}, {25}, {26}, {27}, {28}, {29}, {30}, {31}, {32}, {33}, {34}, {35}, {36}, {37}, {38}, {39}, {40}, {41}, {42}, {43}, {44}, {45}, {46}, {47}, {48}, {49}, {50}, {51}, {52}, {53}, {54}, {55}, {56}];
valid_shapes = [{1, 2}, {3, 4}, {5, 6}, {8, 7}, {9, 10}, {11, 12}, {13, 14}, {16, 15}, {17, 18}, {19, 20}, {21, 22}, {24, 23}, {25, 26}, {27, 28}, {29, 30}, {32, 31}, {33, 34}, {35, 36}, {37, 38}, {40, 39}, {41, 42}, {43, 44}, {45, 46}, {48, 47}, {49, 50}, {51, 52}, {53, 54}, {56, 55}];